n = 50;
C = 241;
w = [477,254,408,58,384,488,359,29,211,325,431,248,89,454,82,203,258,154,237,355,481,238,445,258,136,5,246,14,96,37,451,350,43,108,231,119,236,408,397,252,22,180,110,307,329,364,114,182,331,93];
p = [515,267,374,35,406,449,374,21,221,371,471,260,92,503,131,190,278,140,196,390,445,189,443,279,93,-1,250,50,127,2,496,382,34,151,208,138,264,417,430,291,3,183,112,353,362,407,114,146,329,79];
